Route #1: 9 13 1 10 2 11 29 24 12 14 3 4 15 16 5 6 17 18 19 7 8 20 21 27 39 50 61 73 70 81 88 95 94 99 87 80 93 92 86 91 98 85 79 67 78 90 89 97 83 84 77 66 52 45 46 53 47 48 54 68 59 69 60 49 38 34 26 25 33 32 31 30 37 44 43 42 36 23 22 28 40 35 41 51 55 62 74 75 71 56 57 58 65 72 64 63 76 82 96 100
Cost 45807
